weeks =  8 ;
types =  4 ;
Order = [|
0,0,0,0,0,2,0,0|
0,0,0,0,0,1,0,0|
0,0,0,0,0,0,2,0|
0,0,0,0,0,0,0,2|];
storageCost =  5 ;
SetupCost = [| 
0,149,134, 120|
131,0,139, 125|
128,115,0, 123|
116, 130, 140, 0|];
